HUN,8,6,832
1,11,3,21,2,12,5,10,4,19,0,23
5,30,1,19,2,30,0,25,3,12,4,30
5,29,3,12,2,25,1,20,0,7,4,30
0,25,1,17,3,7,2,3,4,19,5,23
5,20,0,29,1,15,4,21,3,8,2,11
0,1,5,14,3,16,1,14,4,18,2,2
3,29,1,11,5,15,4,23,0,1,2,12
4,6,0,21,2,1,1,7,3,25,5,19
